85 85
5 16
54 32
76 37
66 30
71 33
21 40
31 34
61 38
39 8
80 41
48 26
70 34
46 11
9 24
81 42
55 35
41 43
52 30
62 12
17 9
37 3
58 42
57 23
42 22
53 25
2 16
30 13
73 5
12 1
25 14
1 15
44 31
10 38
60 37
79 3
47 27
67 11
19 27
43 19
16 22
15 8
56 2
84 7
6 35
29 4
49 18
68 4
45 17
7 20
65 15
38 9
3 6
26 41
51 10
77 7
32 20
72 21
82 23
59 39
50 29
22 21
69 36
64 18
74 17
24 32
36 13
34 19
40 10
4 28
23 26
85 14
75 33
18 39
28 1
33 31
13 24
27 29
35 36
11 40
83 6
63 28
20 12
8 5
14 25
78 2
